1646247
0 19 190821
19 18 59142.7
18 21 8374.73
21 10 10309.6
10 15 17049.5
15 25 23200.2
25 13 12452.3
13 4 14271.8
4 17 5422.35
17 3 7921.53
3 8 8394.78
8 27 10293.9
27 1 6275.04
1 5 7285.57
5 14 10550.1
14 20 19591.2
20 22 92633.6
22 2 112203
2 6 5029.49
6 26 7369.94
26 11 88212.7
11 7 61690.2
7 9 176145
9 16 52693.9
16 29 165183
29 28 57184.3
28 12 64527.8
12 24 1644.43
24 23 295738
23 0 54636.4
